\ Model obj_copy
\ LP format - for model browsing. Use MPS format to capture full model detail.
\ Signature: 0x627ebc6ca0eb3ead
Minimize
 
Subject To
 c24: x0 <= 0
 c25: x1 <= 0
 c26: x2 <= 0
 c27: x3 <= 0
 c28: x4 <= 0
 c29: x5 <= 0
 c30: x6 <= 0
 c31: x7 <= 0
 c32: x8 <= 0
 c33: x9 <= 0
 c34: x10 <= 0
 c35: x11 <= 0
 c36: x12 <= 0
 c37: x13 <= 0
 c38: x14 <= 0
 c39: x15 <= 0
 c40: x16 <= 0
 c41: x17 <= 0
 c42: x18 <= 0
 c43: x19 <= 0
 c44: x20 <= 0
 c45: x21 <= 0
 c46: x22 <= 0
 c47: x23 <= 0
 c48: x24 >= 0
 c52: x28 >= 0
 c56: x32 >= 0
 c60: x36 >= 0
 c64: x40 >= 0
 c68: x44 >= 0
 c72: x48 >= 0
 c76: x52 >= 0
 c80: x56 >= 0
 c84: x60 >= 0
 c88: x64 >= 0
 c92: x68 >= 0
 c96: x72 >= 0
 c100: x76 >= 0
 c104: x80 >= 0
 c108: x84 >= 0
 c112: x88 >= 0
 c116: x92 >= 0
 c120: x96 >= 0
 c124: x100 >= 0
 c128: x104 >= 0
 c132: x108 >= 0
 c136: x112 >= 0
 c140: x116 >= 0
 c288: x144 >= 0
 c289: x145 >= 0
 c290: x146 >= 0
 c291: x147 >= 0
 c292: x148 >= 0
 c293: x149 >= 0
 c294: x150 >= 0
 c295: x151 >= 0
 c296: x152 >= 0
 c297: x153 >= 0
 c298: x154 >= 0
 c299: x155 >= 0
 c300: x156 >= 0
 c301: x157 >= 0
 c302: x158 >= 0
 c303: x159 >= 0
 c304: x160 >= 0
 c305: x161 >= 0
 c306: x162 >= 0
 c307: x163 >= 0
 c308: x164 >= 0
 c309: x165 >= 0
 c310: x166 >= 0
 c311: x167 >= 0
 c359: x191 >= 0
 c384: - x27 + 0.98 x25 + x26 = 520.19
 c385: - x31 + 0.98 x29 + x30 = 520.19
 c386: - x35 + 0.98 x33 + x34 = 520.19
 c387: - x39 + 0.98 x37 + x38 = 520.19
 c388: - x43 + 0.98 x41 + x42 = 520.19
 c389: - x47 + 0.98 x45 + x46 = 520.19
 c390: - x51 + 0.98 x49 + x50 = 520.19
 c391: - x55 + 0.98 x53 + x54 = 520.19
 c392: - x59 + 0.98 x57 + x58 = 520.19
 c393: - x63 + 0.98 x61 + x62 = 520.19
 c394: - x67 + 0.98 x65 + x66 = 520.19
 c395: - x71 + 0.98 x69 + x70 = 520.19
 c396: - x75 + 0.98 x73 + x74 = 520.19
 c397: - x79 + 0.98 x77 + x78 = 520.19
 c398: - x83 + 0.98 x81 + x82 = 520.19
 c399: - x87 + 0.98 x85 + x86 = 520.19
 c400: - x91 + 0.98 x89 + x90 = 520.19
 c401: - x95 + 0.98 x93 + x94 = 520.19
 c402: - x99 + 0.98 x97 + x98 = 520.19
 c403: - x103 + 0.98 x101 + x102 = 520.19
 c404: - x107 + 0.98 x105 + x106 = 520.19
 c405: - x111 + 0.98 x109 + x110 = 520.19
 c406: - x115 + 0.98 x113 + x114 = 520.19
 c407: - x119 + 0.98 x117 + x118 = 520.19
 c408: x0 - x25 + x120 - x144 = 0
 c409: x1 - x29 + x121 - x145 = 0
 c410: x2 - x33 + x122 - x146 = 0
 c411: x3 - x37 + x123 - x147 = 0
 c412: x4 - x41 + x124 - x148 = 0
 c413: x5 - x45 + x125 - x149 = 0
 c414: x6 - x49 + x126 - x150 = 0
 c415: x7 - x53 + x127 - x151 = 0
 c416: x8 - x57 + x128 - x152 = 0
 c417: x9 - x61 + x129 - x153 = 0
 c418: x10 - x65 + x130 - x154 = 0
 c419: x11 - x69 + x131 - x155 = 0
 c420: x12 - x73 + x132 - x156 = 0
 c421: x13 - x77 + x133 - x157 = 0
 c422: x14 - x81 + x134 - x158 = 0
 c423: x15 - x85 + x135 - x159 = 0
 c424: x16 - x89 + x136 - x160 = 0
 c425: x17 - x93 + x137 - x161 = 0
 c426: x18 - x97 + x138 - x162 = 0
 c427: x19 - x101 + x139 - x163 = 0
 c428: x20 - x105 + x140 - x164 = 0
 c429: x21 - x109 + x141 - x165 = 0
 c430: x22 - x113 + x142 - x166 = 0
 c431: x23 - x117 + x143 - x167 = 0
 c432: x27 - x24 - x26 = 0
 c433: x31 - x28 - x30 = 0
 c434: x35 - x32 - x34 = 0
 c435: x39 - x36 - x38 = 0
 c436: x43 - x40 - x42 = 0
 c437: x47 - x44 - x46 = 0
 c438: x51 - x48 - x50 = 0
 c439: x55 - x52 - x54 = 0
 c440: x59 - x56 - x58 = 0
 c441: x63 - x60 - x62 = 0
 c442: x67 - x64 - x66 = 0
 c443: x71 - x68 - x70 = 0
 c444: x75 - x72 - x74 = 0
 c445: x79 - x76 - x78 = 0
 c446: x83 - x80 - x82 = 0
 c447: x87 - x84 - x86 = 0
 c448: x91 - x88 - x90 = 0
 c449: x95 - x92 - x94 = 0
 c450: x99 - x96 - x98 = 0
 c451: x103 - x100 - x102 = 0
 c452: x107 - x104 - x106 = 0
 c453: x111 - x108 - x110 = 0
 c454: x115 - x112 - x114 = 0
 c455: x119 - x116 - x118 = 0
 c480: - 0.25406504065 x120 + 0.246 x144 - x168 = -1702.55031058
 c481: - 0.25406504065 x121 + 0.246 x145 + x168 - x169 = 0
 c482: - 0.25406504065 x122 + 0.246 x146 + x169 - x170 = 0
 c483: - 0.25406504065 x123 + 0.246 x147 + x170 - x171 = 0
 c484: - 0.25406504065 x124 + 0.246 x148 + x171 - x172 = 0
 c485: - 0.25406504065 x125 + 0.246 x149 + x172 - x173 = 0
 c486: - 0.25406504065 x126 + 0.246 x150 + x173 - x174 = 0
 c487: - 0.25406504065 x127 + 0.246 x151 + x174 - x175 = 0
 c488: - 0.25406504065 x128 + 0.246 x152 + x175 - x176 = 0
 c489: - 0.25406504065 x129 + 0.246 x153 + x176 - x177 = 0
 c490: - 0.25406504065 x130 + 0.246 x154 + x177 - x178 = 0
 c491: - 0.25406504065 x131 + 0.246 x155 + x178 - x179 = 0
 c492: - 0.25406504065 x132 + 0.246 x156 + x179 - x180 = 0
 c493: - 0.25406504065 x133 + 0.246 x157 + x180 - x181 = 0
 c494: - 0.25406504065 x134 + 0.246 x158 + x181 - x182 = 0
 c495: - 0.25406504065 x135 + 0.246 x159 + x182 - x183 = 0
 c496: - 0.25406504065 x136 + 0.246 x160 + x183 - x184 = 0
 c497: - 0.25406504065 x137 + 0.246 x161 + x184 - x185 = 0
 c498: - 0.25406504065 x138 + 0.246 x162 + x185 - x186 = 0
 c499: - 0.25406504065 x139 + 0.246 x163 + x186 - x187 = 0
 c500: - 0.25406504065 x140 + 0.246 x164 + x187 - x188 = 0
 c501: - 0.25406504065 x141 + 0.246 x165 + x188 - x189 = 0
 c502: - 0.25406504065 x142 + 0.246 x166 + x189 - x190 = 0
 c503: - 0.25406504065 x143 + 0.246 x167 + x190 - x191 = 0
Bounds
 x27 free
 x31 free
 x35 free
 x39 free
 x43 free
 x47 free
 x51 free
 x55 free
 x59 free
 x63 free
 x67 free
 x71 free
 x75 free
 x79 free
 x83 free
 x87 free
 x91 free
 x95 free
 x99 free
 x103 free
 x107 free
 x111 free
 x115 free
 x119 free
 x0 free
 x1 free
 x2 free
 x3 free
 x4 free
 x5 free
 x6 free
 x7 free
 x8 free
 x9 free
 x10 free
 x11 free
 x12 free
 x13 free
 x14 free
 x15 free
 x16 free
 x17 free
 x18 free
 x19 free
 x20 free
 x21 free
 x22 free
 x23 free
 x24 free
 x25 free
 x26 free
 x28 free
 x29 free
 x30 free
 x32 free
 x33 free
 x34 free
 x36 free
 x37 free
 x38 free
 x40 free
 x41 free
 x42 free
 x44 free
 x45 free
 x46 free
 x48 free
 x49 free
 x50 free
 x52 free
 x53 free
 x54 free
 x56 free
 x57 free
 x58 free
 x60 free
 x61 free
 x62 free
 x64 free
 x65 free
 x66 free
 x68 free
 x69 free
 x70 free
 x72 free
 x73 free
 x74 free
 x76 free
 x77 free
 x78 free
 x80 free
 x81 free
 x82 free
 x84 free
 x85 free
 x86 free
 x88 free
 x89 free
 x90 free
 x92 free
 x93 free
 x94 free
 x96 free
 x97 free
 x98 free
 x100 free
 x101 free
 x102 free
 x104 free
 x105 free
 x106 free
 x108 free
 x109 free
 x110 free
 x112 free
 x113 free
 x114 free
 x116 free
 x117 free
 x118 free
 x120 free
 x121 free
 x122 free
 x123 free
 x124 free
 x125 free
 x126 free
 x127 free
 x128 free
 x129 free
 x130 free
 x131 free
 x132 free
 x133 free
 x134 free
 x135 free
 x136 free
 x137 free
 x138 free
 x139 free
 x140 free
 x141 free
 x142 free
 x143 free
 x144 free
 x145 free
 x146 free
 x147 free
 x148 free
 x149 free
 x150 free
 x151 free
 x152 free
 x153 free
 x154 free
 x155 free
 x156 free
 x157 free
 x158 free
 x159 free
 x160 free
 x161 free
 x162 free
 x163 free
 x164 free
 x165 free
 x166 free
 x167 free
 x168 free
 x169 free
 x170 free
 x171 free
 x172 free
 x173 free
 x174 free
 x175 free
 x176 free
 x177 free
 x178 free
 x179 free
 x180 free
 x181 free
 x182 free
 x183 free
 x184 free
 x185 free
 x186 free
 x187 free
 x188 free
 x189 free
 x190 free
 x191 free
End
